set VV := 0 1 2 3 4 5 6 7 8 9 10 11 12 13 14 15 16 17 ;
set VS := 0 1 2 3 4 5 6 7 8 9 10 11 12 13 14 15 16 17 18 19 20 21 22 23 24 25 26 27 28 29 30 31 32 33 34 35 36 37 38 39 ;
param cv := 
0 17
1 18
2 13
3 13
4 16
5 14
6 22
7 21
8 24
9 24
10 21
11 13
12 24
13 22
14 11
15 17
16 21
17 25
;
param cs := 
0 25
1 27
2 38
3 30
4 38
5 35
6 39
7 25
8 26
9 34
10 39
11 26
12 26
13 29
14 24
15 39
16 26
17 23
18 35
19 39
20 28
21 29
22 40
23 27
24 40
25 37
26 38
27 21
28 33
29 39
30 40
31 23
32 38
33 39
34 27
35 26
36 33
37 33
38 22
39 26
;
param bv:	 0 1 2 3 4 5 6 7 8 9 10 11 12 13 14 15 16 17 := 
		0 0 0 16 0 0 0 0 23 0 0 0 0 0 0 0 0 0 25 
		1 0 0 22 13 0 0 0 0 0 0 0 0 0 0 0 0 0 0 
		2 0 0 0 0 0 0 12 0 0 0 15 0 0 0 0 0 14 0 
		3 0 0 0 0 0 0 0 0 0 0 0 0 0 0 0 0 0 0 
		4 0 0 0 0 0 0 0 14 0 0 0 0 0 0 0 0 0 0 
		5 0 0 0 0 0 0 17 0 0 0 0 13 0 0 0 0 0 20 
		6 0 0 0 0 0 0 0 0 0 0 13 0 0 0 19 0 0 0 
		7 0 0 0 0 0 0 0 0 0 0 0 0 0 0 0 0 23 0 
		8 0 0 0 0 0 0 0 0 0 0 0 0 0 17 0 0 24 0 
		9 0 0 0 0 0 0 0 0 0 0 0 10 23 0 0 0 0 20 
		10 0 0 0 0 0 0 0 0 0 0 0 0 0 0 24 0 0 0 
		11 0 0 0 0 0 0 0 0 0 0 0 0 0 0 20 0 0 0 
		12 0 0 0 0 0 0 0 0 0 0 0 0 0 0 0 0 0 0 
		13 0 0 0 0 0 0 0 0 0 0 0 0 0 0 0 14 0 0 
		14 0 0 0 0 0 0 0 0 0 0 0 0 0 0 0 0 0 0 
		15 0 0 0 0 0 0 0 0 0 0 0 0 0 0 0 0 0 25 
		16 0 0 0 0 0 0 0 0 0 0 0 0 0 0 0 0 0 0 
		17 0 0 0 0 0 0 0 0 0 0 0 0 0 0 0 0 0 0 
;
param bs:	 0 1 2 3 4 5 6 7 8 9 10 11 12 13 14 15 16 17 18 19 20 21 22 23 24 25 26 27 28 29 30 31 32 33 34 35 36 37 38 39 := 
		0 0 0 31 0 0 0 0 34 0 0 0 22 0 0 39 0 0 0 0 0 0 0 0 0 0 0 0 0 0 39 0 28 0 0 0 0 0 0 36 21 
		1 0 0 0 0 0 0 0 0 0 0 0 0 0 0 0 0 0 0 34 0 0 0 0 38 0 0 0 0 0 0 0 0 31 37 0 0 0 0 0 0 
		2 31 0 0 0 0 0 0 0 0 0 0 0 33 0 0 0 0 0 0 0 0 0 0 0 0 0 0 0 0 0 0 0 0 0 0 0 0 0 0 0 
		3 0 0 0 0 0 0 0 23 0 0 0 0 0 0 0 0 20 0 0 0 0 0 0 0 0 0 0 0 0 34 0 0 0 0 0 0 23 0 0 0 
		4 0 0 0 0 0 0 0 0 0 0 0 0 22 0 0 0 0 0 0 0 0 0 39 0 0 0 0 0 0 0 0 0 0 0 26 0 0 0 0 0 
		5 0 0 0 0 0 0 26 0 0 0 0 0 0 0 0 0 0 0 0 20 0 0 0 0 0 0 0 0 32 0 0 0 0 0 0 0 0 0 0 22 
		6 0 0 0 0 0 26 0 0 0 0 0 0 0 0 0 0 0 0 0 0 0 0 0 0 0 0 0 0 0 0 0 0 0 0 0 31 33 0 0 0 
		7 34 0 0 23 0 0 0 0 0 0 0 0 0 0 0 0 0 0 0 0 0 0 32 0 0 33 0 0 0 0 39 0 0 21 0 0 0 0 0 0 
		8 0 0 0 0 0 0 0 0 0 0 0 37 0 0 0 0 0 0 0 0 0 0 0 0 0 22 0 0 0 0 0 0 0 0 0 0 0 0 0 37 
		9 0 0 0 0 0 0 0 0 0 0 0 0 0 0 0 0 0 0 21 0 0 0 0 0 0 0 35 0 0 0 0 0 0 0 0 0 0 0 0 0 
		10 0 0 0 0 0 0 0 0 0 0 0 0 0 0 0 0 0 37 0 0 0 0 0 0 0 0 0 0 28 0 0 0 0 0 0 0 0 0 0 0 
		11 22 0 0 0 0 0 0 0 37 0 0 0 0 26 0 0 0 0 0 0 20 0 0 0 21 0 0 0 0 0 0 0 0 0 0 0 0 0 0 0 
		12 0 0 33 0 22 0 0 0 0 0 0 0 0 0 0 0 0 0 20 31 0 22 0 0 0 24 0 0 0 0 0 0 0 30 0 0 0 0 0 0 
		13 0 0 0 0 0 0 0 0 0 0 0 26 0 0 0 0 0 0 0 22 26 0 0 0 0 0 0 0 26 0 0 0 0 0 0 0 0 0 40 0 
		14 39 0 0 0 0 0 0 0 0 0 0 0 0 0 0 0 33 34 0 0 0 0 0 35 22 0 0 0 0 0 0 0 0 0 0 0 0 0 0 20 
		15 0 0 0 0 0 0 0 0 0 0 0 0 0 0 0 0 0 0 33 40 0 0 27 0 20 0 0 0 0 33 0 0 0 0 35 0 0 0 37 0 
		16 0 0 0 20 0 0 0 0 0 0 0 0 0 0 33 0 0 0 0 0 0 0 0 0 27 0 0 40 0 23 0 21 0 0 0 0 0 0 35 0 
		17 0 0 0 0 0 0 0 0 0 0 37 0 0 0 34 0 0 0 0 0 0 0 0 0 0 0 0 0 0 0 0 0 0 0 0 0 0 0 25 0 
		18 0 34 0 0 0 0 0 0 0 21 0 0 20 0 0 33 0 0 0 0 0 0 0 20 0 0 0 0 0 0 0 0 0 0 27 0 0 0 0 24 
		19 0 0 0 0 0 20 0 0 0 0 0 0 31 22 0 40 0 0 0 0 0 0 0 0 0 0 0 32 0 0 0 0 0 0 0 0 0 0 0 0 
		20 0 0 0 0 0 0 0 0 0 0 0 20 0 26 0 0 0 0 0 0 0 0 0 0 0 0 29 0 0 0 0 0 0 0 0 0 0 0 0 0 
		21 0 0 0 0 0 0 0 0 0 0 0 0 22 0 0 0 0 0 0 0 0 0 0 28 0 25 0 0 0 0 32 0 0 0 0 0 0 0 38 20 
		22 0 0 0 0 39 0 0 32 0 0 0 0 0 0 0 27 0 0 0 0 0 0 0 0 33 31 0 32 0 26 0 0 0 22 0 0 21 0 0 0 
		23 0 38 0 0 0 0 0 0 0 0 0 0 0 0 35 0 0 0 20 0 0 28 0 0 0 0 0 0 0 27 35 0 0 0 0 0 0 0 0 0 
		24 0 0 0 0 0 0 0 0 0 0 0 21 0 0 22 20 27 0 0 0 0 0 33 0 0 0 0 0 0 0 0 28 0 0 0 0 0 0 0 0 
		25 0 0 0 0 0 0 0 33 22 0 0 0 24 0 0 0 0 0 0 0 0 25 31 0 0 0 0 0 0 0 0 0 0 0 28 0 0 0 0 35 
		26 0 0 0 0 0 0 0 0 0 35 0 0 0 0 0 0 0 0 0 0 29 0 0 0 0 0 0 0 0 0 0 0 0 0 40 0 39 0 0 0 
		27 0 0 0 0 0 0 0 0 0 0 0 0 0 0 0 0 40 0 0 32 0 0 32 0 0 0 0 0 0 0 0 0 0 0 0 0 0 0 0 0 
		28 0 0 0 0 0 32 0 0 0 0 28 0 0 26 0 0 0 0 0 0 0 0 0 0 0 0 0 0 0 0 0 0 0 0 0 32 39 0 0 0 
		29 39 0 0 34 0 0 0 0 0 0 0 0 0 0 0 33 23 0 0 0 0 0 26 27 0 0 0 0 0 0 24 21 0 0 0 0 0 0 24 0 
		30 0 0 0 0 0 0 0 39 0 0 0 0 0 0 0 0 0 0 0 0 0 32 0 35 0 0 0 0 0 24 0 36 0 35 0 0 0 0 20 0 
		31 28 0 0 0 0 0 0 0 0 0 0 0 0 0 0 0 21 0 0 0 0 0 0 0 28 0 0 0 0 21 36 0 0 0 23 0 0 0 0 0 
		32 0 31 0 0 0 0 0 0 0 0 0 0 0 0 0 0 0 0 0 0 0 0 0 0 0 0 0 0 0 0 0 0 0 0 0 0 0 0 0 0 
		33 0 37 0 0 0 0 0 21 0 0 0 0 30 0 0 0 0 0 0 0 0 0 22 0 0 0 0 0 0 0 35 0 0 0 20 0 0 0 0 0 
		34 0 0 0 0 26 0 0 0 0 0 0 0 0 0 0 35 0 0 27 0 0 0 0 0 0 28 40 0 0 0 0 23 0 20 0 0 0 0 21 0 
		35 0 0 0 0 0 0 31 0 0 0 0 0 0 0 0 0 0 0 0 0 0 0 0 0 0 0 0 0 32 0 0 0 0 0 0 0 0 0 0 0 
		36 0 0 0 23 0 0 33 0 0 0 0 0 0 0 0 0 0 0 0 0 0 0 21 0 0 0 39 0 39 0 0 0 0 0 0 0 0 21 0 0 
		37 0 0 0 0 0 0 0 0 0 0 0 0 0 0 0 0 0 0 0 0 0 0 0 0 0 0 0 0 0 0 0 0 0 0 0 0 21 0 0 28 
		38 36 0 0 0 0 0 0 0 0 0 0 0 0 40 0 37 35 25 0 0 0 38 0 0 0 0 0 0 0 24 20 0 0 0 21 0 0 0 0 0 
		39 21 0 0 0 0 22 0 0 37 0 0 0 0 0 20 0 0 0 24 0 0 20 0 0 0 35 0 0 0 0 0 0 0 0 0 0 0 28 0 0 
;
